p cnf 206 838
1 2 3 4 5 6 7 8 9 10 11 12 13 14 15 16 17 18 19 20 21 0
22 23 24 25 26 27 28 29 30 31 32 33 34 35 36 37 38 39 40 41 42 0
43 44 45 46 47 48 49 50 51 52 53 54 55 56 57 58 59 60 61 0
104 105 106 107 108 109 110 111 112 113 114 115 116 117 118 119 120 121 122 123 124 0
125 126 127 128 129 130 131 132 133 134 135 136 137 138 139 140 141 142 143 0
144 145 146 147 148 149 150 151 152 153 154 155 156 157 158 159 160 161 162 163 164 0
165 166 167 168 169 170 171 172 173 174 175 176 177 178 179 180 181 182 183 0
184 185 186 187 188 189 190 191 192 193 194 195 196 197 198 199 200 201 202 203 204 205 206 0
-1 -43 0
-1 -62 0
-1 -82 0
-1 -104 0
-1 -125 0
-1 -144 0
-1 -165 0
-1 -184 0
-43 -62 0
-43 -82 0
-43 -104 0
-43 -125 0
-43 -144 0
-43 -165 0
-43 -184 0
-62 -82 0
-62 -104 0
-62 -125 0
-62 -144 0
-62 -165 0
-62 -184 0
-82 -104 0
-82 -125 0
-82 -144 0
-82 -165 0
-82 -184 0
-104 -125 0
-104 -144 0
-104 -165 0
-104 -184 0
-125 -144 0
-125 -165 0
-125 -184 0
-144 -165 0
-144 -184 0
-165 -184 0
-2 -22 0
-2 -44 0
-2 -83 0
-2 -105 0
-2 -126 0
-2 -185 0
-22 -44 0
-22 -83 0
-22 -105 0
-22 -126 0
-22 -185 0
-44 -83 0
-44 -105 0
-44 -126 0
-44 -185 0
-83 -105 0
-83 -126 0
-83 -185 0
-105 -126 0
-105 -185 0
-126 -185 0
-3 -23 0
-3 -45 0
-3 -63 0
-3 -84 0
-3 -106 0
-3 -127 0
-3 -145 0
-3 -166 0
-3 -186 0
-23 -45 0
-23 -63 0
-23 -84 0
-23 -106 0
-23 -127 0
-23 -145 0
-23 -166 0
-23 -186 0
-45 -63 0
-45 -84 0
-45 -106 0
-45 -127 0
-45 -145 0
-45 -166 0
-45 -186 0
-63 -84 0
-63 -106 0
-63 -127 0
-63 -145 0
-63 -166 0
-63 -186 0
-84 -106 0
-84 -127 0
-84 -145 0
-84 -166 0
-84 -186 0
-106 -127 0
-106 -145 0
-106 -166 0
-106 -186 0
-127 -145 0
-127 -166 0
-127 -186 0
-145 -166 0
-145 -186 0
-166 -186 0
-4 -24 0
-4 -64 0
-4 -85 0
-4 -107 0
-4 -146 0
-4 -187 0
-24 -64 0
-24 -85 0
-24 -107 0
-24 -146 0
-24 -187 0
-64 -85 0
-64 -107 0
-64 -146 0
-64 -187 0
-85 -107 0
-85 -146 0
-85 -187 0
-107 -146 0
-107 -187 0
-146 -187 0
-5 -25 0
-5 -46 0
-5 -65 0
-5 -86 0
-5 -108 0
-5 -128 0
-5 -147 0
-5 -167 0
-5 -188 0
-25 -46 0
-25 -65 0
-25 -86 0
-25 -108 0
-25 -128 0
-25 -147 0
-25 -167 0
-25 -188 0
-46 -65 0
-46 -86 0
-46 -108 0
-46 -128 0
-46 -147 0
-46 -167 0
-46 -188 0
-65 -86 0
-65 -108 0
-65 -128 0
-65 -147 0
-65 -167 0
-65 -188 0
-86 -108 0
-86 -128 0
-86 -147 0
-86 -167 0
-86 -188 0
-108 -128 0
-108 -147 0
-108 -167 0
-108 -188 0
-128 -147 0
-128 -167 0
-128 -188 0
-147 -167 0
-147 -188 0
-167 -188 0
-6 -26 0
-6 -47 0
-6 -87 0
-6 -109 0
-6 -129 0
-6 -148 0
-6 -168 0
-6 -189 0
-26 -47 0
-26 -87 0
-26 -109 0
-26 -129 0
-26 -148 0
-26 -168 0
-26 -189 0
-47 -87 0
-47 -109 0
-47 -129 0
-47 -148 0
-47 -168 0
-47 -189 0
-87 -109 0
-87 -129 0
-87 -148 0
-87 -168 0
-87 -189 0
-109 -129 0
-109 -148 0
-109 -168 0
-109 -189 0
-129 -148 0
-129 -168 0
-129 -189 0
-148 -168 0
-148 -189 0
-168 -189 0
-27 -48 0
-27 -66 0
-27 -88 0
-27 -110 0
-27 -130 0
-27 -149 0
-27 -169 0
-27 -190 0
-48 -66 0
-48 -88 0
-48 -110 0
-48 -130 0
-48 -149 0
-48 -169 0
-48 -190 0
-66 -88 0
-66 -110 0
-66 -130 0
-66 -149 0
-66 -169 0
-66 -190 0
-88 -110 0
-88 -130 0
-88 -149 0
-88 -169 0
-88 -190 0
-110 -130 0
-110 -149 0
-110 -169 0
-110 -190 0
-130 -149 0
-130 -169 0
-130 -190 0
-149 -169 0
-149 -190 0
-169 -190 0
-7 -28 0
-7 -49 0
-7 -67 0
-7 -89 0
-7 -111 0
-7 -131 0
-7 -150 0
-7 -170 0
-7 -191 0
-28 -49 0
-28 -67 0
-28 -89 0
-28 -111 0
-28 -131 0
-28 -150 0
-28 -170 0
-28 -191 0
-49 -67 0
-49 -89 0
-49 -111 0
-49 -131 0
-49 -150 0
-49 -170 0
-49 -191 0
-67 -89 0
-67 -111 0
-67 -131 0
-67 -150 0
-67 -170 0
-67 -191 0
-89 -111 0
-89 -131 0
-89 -150 0
-89 -170 0
-89 -191 0
-111 -131 0
-111 -150 0
-111 -170 0
-111 -191 0
-131 -150 0
-131 -170 0
-131 -191 0
-150 -170 0
-150 -191 0
-170 -191 0
-8 -29 0
-8 -50 0
-8 -68 0
-8 -90 0
-8 -151 0
-8 -171 0
-8 -192 0
-29 -50 0
-29 -68 0
-29 -90 0
-29 -151 0
-29 -171 0
-29 -192 0
-50 -68 0
-50 -90 0
-50 -151 0
-50 -171 0
-50 -192 0
-68 -90 0
-68 -151 0
-68 -171 0
-68 -192 0
-90 -151 0
-90 -171 0
-90 -192 0
-151 -171 0
-151 -192 0
-171 -192 0
-9 -30 0
-9 -69 0
-9 -91 0
-9 -112 0
-9 -132 0
-9 -152 0
-9 -172 0
-9 -193 0
-30 -69 0
-30 -91 0
-30 -112 0
-30 -132 0
-30 -152 0
-30 -172 0
-30 -193 0
-69 -91 0
-69 -112 0
-69 -132 0
-69 -152 0
-69 -172 0
-69 -193 0
-91 -112 0
-91 -132 0
-91 -152 0
-91 -172 0
-91 -193 0
-112 -132 0
-112 -152 0
-112 -172 0
-112 -193 0
-132 -152 0
-132 -172 0
-132 -193 0
-152 -172 0
-152 -193 0
-172 -193 0
-10 -31 0
-10 -51 0
-10 -70 0
-10 -92 0
-10 -113 0
-10 -133 0
-10 -153 0
-10 -173 0
-10 -194 0
-31 -51 0
-31 -70 0
-31 -92 0
-31 -113 0
-31 -133 0
-31 -153 0
-31 -173 0
-31 -194 0
-51 -70 0
-51 -92 0
-51 -113 0
-51 -133 0
-51 -153 0
-51 -173 0
-51 -194 0
-70 -92 0
-70 -113 0
-70 -133 0
-70 -153 0
-70 -173 0
-70 -194 0
-92 -113 0
-92 -133 0
-92 -153 0
-92 -173 0
-92 -194 0
-113 -133 0
-113 -153 0
-113 -173 0
-113 -194 0
-133 -153 0
-133 -173 0
-133 -194 0
-153 -173 0
-153 -194 0
-173 -194 0
-11 -32 0
-11 -52 0
-11 -71 0
-11 -93 0
-11 -114 0
-11 -134 0
-11 -154 0
-11 -174 0
-11 -195 0
-32 -52 0
-32 -71 0
-32 -93 0
-32 -114 0
-32 -134 0
-32 -154 0
-32 -174 0
-32 -195 0
-52 -71 0
-52 -93 0
-52 -114 0
-52 -134 0
-52 -154 0
-52 -174 0
-52 -195 0
-71 -93 0
-71 -114 0
-71 -134 0
-71 -154 0
-71 -174 0
-71 -195 0
-93 -114 0
-93 -134 0
-93 -154 0
-93 -174 0
-93 -195 0
-114 -134 0
-114 -154 0
-114 -174 0
-114 -195 0
-134 -154 0
-134 -174 0
-134 -195 0
-154 -174 0
-154 -195 0
-174 -195 0
-12 -33 0
-12 -72 0
-12 -94 0
-12 -115 0
-12 -135 0
-12 -155 0
-12 -175 0
-12 -196 0
-33 -72 0
-33 -94 0
-33 -115 0
-33 -135 0
-33 -155 0
-33 -175 0
-33 -196 0
-72 -94 0
-72 -115 0
-72 -135 0
-72 -155 0
-72 -175 0
-72 -196 0
-94 -115 0
-94 -135 0
-94 -155 0
-94 -175 0
-94 -196 0
-115 -135 0
-115 -155 0
-115 -175 0
-115 -196 0
-135 -155 0
-135 -175 0
-135 -196 0
-155 -175 0
-155 -196 0
-175 -196 0
-13 -34 0
-13 -53 0
-13 -73 0
-13 -116 0
-13 -136 0
-13 -156 0
-13 -176 0
-13 -197 0
-34 -53 0
-34 -73 0
-34 -116 0
-34 -136 0
-34 -156 0
-34 -176 0
-34 -197 0
-53 -73 0
-53 -116 0
-53 -136 0
-53 -156 0
-53 -176 0
-53 -197 0
-73 -116 0
-73 -136 0
-73 -156 0
-73 -176 0
-73 -197 0
-116 -136 0
-116 -156 0
-116 -176 0
-116 -197 0
-136 -156 0
-136 -176 0
-136 -197 0
-156 -176 0
-156 -197 0
-176 -197 0
-35 -54 0
-35 -74 0
-35 -95 0
-35 -117 0
-35 -137 0
-35 -157 0
-35 -198 0
-54 -74 0
-54 -95 0
-54 -117 0
-54 -137 0
-54 -157 0
-54 -198 0
-74 -95 0
-74 -117 0
-74 -137 0
-74 -157 0
-74 -198 0
-95 -117 0
-95 -137 0
-95 -157 0
-95 -198 0
-117 -137 0
-117 -157 0
-117 -198 0
-137 -157 0
-137 -198 0
-157 -198 0
-14 -36 0
-14 -75 0
-14 -96 0
-14 -118 0
-14 -138 0
-14 -158 0
-14 -199 0
-36 -75 0
-36 -96 0
-36 -118 0
-36 -138 0
-36 -158 0
-36 -199 0
-75 -96 0
-75 -118 0
-75 -138 0
-75 -158 0
-75 -199 0
-96 -118 0
-96 -138 0
-96 -158 0
-96 -199 0
-118 -138 0
-118 -158 0
-118 -199 0
-138 -158 0
-138 -199 0
-158 -199 0
-15 -37 0
-15 -55 0
-15 -76 0
-15 -97 0
-15 -119 0
-15 -139 0
-15 -159 0
-15 -177 0
-15 -200 0
-37 -55 0
-37 -76 0
-37 -97 0
-37 -119 0
-37 -139 0
-37 -159 0
-37 -177 0
-37 -200 0
-55 -76 0
-55 -97 0
-55 -119 0
-55 -139 0
-55 -159 0
-55 -177 0
-55 -200 0
-76 -97 0
-76 -119 0
-76 -139 0
-76 -159 0
-76 -177 0
-76 -200 0
-97 -119 0
-97 -139 0
-97 -159 0
-97 -177 0
-97 -200 0
-119 -139 0
-119 -159 0
-119 -177 0
-119 -200 0
-139 -159 0
-139 -177 0
-139 -200 0
-159 -177 0
-159 -200 0
-177 -200 0
-16 -38 0
-16 -56 0
-16 -77 0
-16 -98 0
-16 -120 0
-16 -140 0
-16 -160 0
-16 -178 0
-16 -201 0
-38 -56 0
-38 -77 0
-38 -98 0
-38 -120 0
-38 -140 0
-38 -160 0
-38 -178 0
-38 -201 0
-56 -77 0
-56 -98 0
-56 -120 0
-56 -140 0
-56 -160 0
-56 -178 0
-56 -201 0
-77 -98 0
-77 -120 0
-77 -140 0
-77 -160 0
-77 -178 0
-77 -201 0
-98 -120 0
-98 -140 0
-98 -160 0
-98 -178 0
-98 -201 0
-120 -140 0
-120 -160 0
-120 -178 0
-120 -201 0
-140 -160 0
-140 -178 0
-140 -201 0
-160 -178 0
-160 -201 0
-178 -201 0
-17 -39 0
-17 -57 0
-17 -78 0
-17 -99 0
-17 -121 0
-17 -141 0
-17 -161 0
-17 -179 0
-17 -202 0
-39 -57 0
-39 -78 0
-39 -99 0
-39 -121 0
-39 -141 0
-39 -161 0
-39 -179 0
-39 -202 0
-57 -78 0
-57 -99 0
-57 -121 0
-57 -141 0
-57 -161 0
-57 -179 0
-57 -202 0
-78 -99 0
-78 -121 0
-78 -141 0
-78 -161 0
-78 -179 0
-78 -202 0
-99 -121 0
-99 -141 0
-99 -161 0
-99 -179 0
-99 -202 0
-121 -141 0
-121 -161 0
-121 -179 0
-121 -202 0
-141 -161 0
-141 -179 0
-141 -202 0
-161 -179 0
-161 -202 0
-179 -202 0
-18 -40 0
-18 -58 0
-18 -79 0
-18 -100 0
-18 -122 0
-18 -142 0
-18 -180 0
-18 -203 0
-40 -58 0
-40 -79 0
-40 -100 0
-40 -122 0
-40 -142 0
-40 -180 0
-40 -203 0
-58 -79 0
-58 -100 0
-58 -122 0
-58 -142 0
-58 -180 0
-58 -203 0
-79 -100 0
-79 -122 0
-79 -142 0
-79 -180 0
-79 -203 0
-100 -122 0
-100 -142 0
-100 -180 0
-100 -203 0
-122 -142 0
-122 -180 0
-122 -203 0
-142 -180 0
-142 -203 0
-180 -203 0
-19 -59 0
-19 -80 0
-19 -101 0
-19 -123 0
-19 -162 0
-19 -181 0
-19 -204 0
-59 -80 0
-59 -101 0
-59 -123 0
-59 -162 0
-59 -181 0
-59 -204 0
-80 -101 0
-80 -123 0
-80 -162 0
-80 -181 0
-80 -204 0
-101 -123 0
-101 -162 0
-101 -181 0
-101 -204 0
-123 -162 0
-123 -181 0
-123 -204 0
-162 -181 0
-162 -204 0
-181 -204 0
-20 -41 0
-20 -60 0
-20 -102 0
-20 -143 0
-20 -163 0
-20 -182 0
-20 -205 0
-41 -60 0
-41 -102 0
-41 -143 0
-41 -163 0
-41 -182 0
-41 -205 0
-60 -102 0
-60 -143 0
-60 -163 0
-60 -182 0
-60 -205 0
-102 -143 0
-102 -163 0
-102 -182 0
-102 -205 0
-143 -163 0
-143 -182 0
-143 -205 0
-163 -182 0
-163 -205 0
-182 -205 0
-21 -42 0
-21 -61 0
-21 -81 0
-21 -103 0
-21 -124 0
-21 -164 0
-21 -183 0
-21 -206 0
-42 -61 0
-42 -81 0
-42 -103 0
-42 -124 0
-42 -164 0
-42 -183 0
-42 -206 0
-61 -81 0
-61 -103 0
-61 -124 0
-61 -164 0
-61 -183 0
-61 -206 0
-81 -103 0
-81 -124 0
-81 -164 0
-81 -183 0
-81 -206 0
-103 -124 0
-103 -164 0
-103 -183 0
-103 -206 0
-124 -164 0
-124 -183 0
-124 -206 0
-164 -183 0
-164 -206 0
-183 -206 0
